# Comment out shake in lammps script

# Atom Type
#  H 	1
#  O 	2

pair_style	airebo 2.0
#kspace_style	pppm 1.0e-4 
#kspace_modify	slab 3.0
pair_coeff	* * inputFiles/CH.airebo_real C
